; benchmark generated from python API
(set-info :status unknown)
(declare-fun cell_1_1 () Int)
(declare-fun cell_1_3 () Int)
(declare-fun cell_2_6 () Int)
(declare-fun cell_2_8 () Int)
(declare-fun cell_3_4 () Int)
(declare-fun cell_3_8 () Int)
(declare-fun cell_4_6 () Int)
(declare-fun cell_4_9 () Int)
(declare-fun cell_5_1 () Int)
(declare-fun cell_5_9 () Int)
(declare-fun cell_6_3 () Int)
(declare-fun cell_6_4 () Int)
(declare-fun cell_7_2 () Int)
(declare-fun cell_7_5 () Int)
(declare-fun cell_8_2 () Int)
(declare-fun cell_9_7 () Int)
(declare-fun cell_2_1 () Int)
(declare-fun cell_3_1 () Int)
(declare-fun cell_4_1 () Int)
(declare-fun cell_6_1 () Int)
(declare-fun cell_7_1 () Int)
(declare-fun cell_8_1 () Int)
(declare-fun cell_9_1 () Int)
(declare-fun cell_1_2 () Int)
(declare-fun cell_2_2 () Int)
(declare-fun cell_3_2 () Int)
(declare-fun cell_4_2 () Int)
(declare-fun cell_5_2 () Int)
(declare-fun cell_6_2 () Int)
(declare-fun cell_9_2 () Int)
(declare-fun cell_2_3 () Int)
(declare-fun cell_3_3 () Int)
(declare-fun cell_4_3 () Int)
(declare-fun cell_5_3 () Int)
(declare-fun cell_7_3 () Int)
(declare-fun cell_8_3 () Int)
(declare-fun cell_9_3 () Int)
(declare-fun cell_1_4 () Int)
(declare-fun cell_2_4 () Int)
(declare-fun cell_4_4 () Int)
(declare-fun cell_5_4 () Int)
(declare-fun cell_7_4 () Int)
(declare-fun cell_8_4 () Int)
(declare-fun cell_9_4 () Int)
(declare-fun cell_1_5 () Int)
(declare-fun cell_2_5 () Int)
(declare-fun cell_3_5 () Int)
(declare-fun cell_4_5 () Int)
(declare-fun cell_5_5 () Int)
(declare-fun cell_6_5 () Int)
(declare-fun cell_8_5 () Int)
(declare-fun cell_9_5 () Int)
(declare-fun cell_1_6 () Int)
(declare-fun cell_3_6 () Int)
(declare-fun cell_5_6 () Int)
(declare-fun cell_6_6 () Int)
(declare-fun cell_7_6 () Int)
(declare-fun cell_8_6 () Int)
(declare-fun cell_9_6 () Int)
(declare-fun cell_1_7 () Int)
(declare-fun cell_2_7 () Int)
(declare-fun cell_3_7 () Int)
(declare-fun cell_4_7 () Int)
(declare-fun cell_5_7 () Int)
(declare-fun cell_6_7 () Int)
(declare-fun cell_7_7 () Int)
(declare-fun cell_8_7 () Int)
(declare-fun cell_1_8 () Int)
(declare-fun cell_4_8 () Int)
(declare-fun cell_5_8 () Int)
(declare-fun cell_6_8 () Int)
(declare-fun cell_7_8 () Int)
(declare-fun cell_8_8 () Int)
(declare-fun cell_9_8 () Int)
(declare-fun cell_1_9 () Int)
(declare-fun cell_2_9 () Int)
(declare-fun cell_3_9 () Int)
(declare-fun cell_6_9 () Int)
(declare-fun cell_7_9 () Int)
(declare-fun cell_8_9 () Int)
(declare-fun cell_9_9 () Int)
(assert
 (= cell_1_1 1))
(assert
 (= cell_1_3 2))
(assert
 (= cell_2_6 2))
(assert
 (= cell_2_8 1))
(assert
 (= cell_3_4 1))
(assert
 (= cell_3_8 2))
(assert
 (= cell_4_6 1))
(assert
 (= cell_4_9 2))
(assert
 (= cell_5_1 2))
(assert
 (= cell_5_9 1))
(assert
 (= cell_6_3 1))
(assert
 (= cell_6_4 2))
(assert
 (= cell_7_2 2))
(assert
 (= cell_7_5 1))
(assert
 (= cell_8_2 1))
(assert
 (= cell_9_7 1))
(assert
 (let (($x2561 (= cell_1_1 1)))
 (or $x2561 (= cell_1_1 2) (= cell_1_1 3) (= cell_1_1 4) (= cell_1_1 5) (= cell_1_1 6) (= cell_1_1 7) (= cell_1_1 8) (= cell_1_1 9))))
(assert
 (let (($x644 (= cell_2_1 9)))
 (let (($x3046 (= cell_2_1 8)))
 (let (($x7262 (= cell_2_1 7)))
 (let (($x3636 (= cell_2_1 6)))
 (let (($x7965 (= cell_2_1 5)))
 (let (($x1174 (= cell_2_1 4)))
 (let (($x5090 (= cell_2_1 3)))
 (let (($x4481 (= cell_2_1 2)))
 (let (($x10094 (= cell_2_1 1)))
 (or $x10094 $x4481 $x5090 $x1174 $x7965 $x3636 $x7262 $x3046 $x644)))))))))))
(assert
 (let (($x7665 (= cell_3_1 9)))
 (let (($x3986 (= cell_3_1 8)))
 (let (($x5302 (= cell_3_1 7)))
 (let (($x4667 (= cell_3_1 6)))
 (let (($x8910 (= cell_3_1 5)))
 (let (($x5296 (= cell_3_1 4)))
 (let (($x9289 (= cell_3_1 3)))
 (let (($x3057 (= cell_3_1 2)))
 (let (($x4831 (= cell_3_1 1)))
 (or $x4831 $x3057 $x9289 $x5296 $x8910 $x4667 $x5302 $x3986 $x7665)))))))))))
(assert
 (let (($x5663 (= cell_4_1 9)))
 (let (($x3865 (= cell_4_1 8)))
 (let (($x1436 (= cell_4_1 7)))
 (let (($x4835 (= cell_4_1 6)))
 (let (($x7524 (= cell_4_1 5)))
 (let (($x2668 (= cell_4_1 4)))
 (let (($x9869 (= cell_4_1 3)))
 (let (($x7804 (= cell_4_1 2)))
 (let (($x1388 (= cell_4_1 1)))
 (or $x1388 $x7804 $x9869 $x2668 $x7524 $x4835 $x1436 $x3865 $x5663)))))))))))
(assert
 (let (($x3173 (= cell_5_1 2)))
 (or (= cell_5_1 1) $x3173 (= cell_5_1 3) (= cell_5_1 4) (= cell_5_1 5) (= cell_5_1 6) (= cell_5_1 7) (= cell_5_1 8) (= cell_5_1 9))))
(assert
 (let (($x8243 (= cell_6_1 9)))
 (let (($x8503 (= cell_6_1 8)))
 (let (($x6293 (= cell_6_1 7)))
 (let (($x7002 (= cell_6_1 6)))
 (let (($x6110 (= cell_6_1 5)))
 (let (($x3444 (= cell_6_1 4)))
 (let (($x9783 (= cell_6_1 3)))
 (let (($x3958 (= cell_6_1 2)))
 (let (($x596 (= cell_6_1 1)))
 (or $x596 $x3958 $x9783 $x3444 $x6110 $x7002 $x6293 $x8503 $x8243)))))))))))
(assert
 (let (($x6221 (= cell_7_1 9)))
 (let (($x3456 (= cell_7_1 8)))
 (let (($x5629 (= cell_7_1 7)))
 (let (($x6297 (= cell_7_1 6)))
 (let (($x9347 (= cell_7_1 5)))
 (let (($x964 (= cell_7_1 4)))
 (let (($x3094 (= cell_7_1 3)))
 (let (($x1187 (= cell_7_1 2)))
 (let (($x410 (= cell_7_1 1)))
 (or $x410 $x1187 $x3094 $x964 $x9347 $x6297 $x5629 $x3456 $x6221)))))))))))
(assert
 (let (($x933 (= cell_8_1 9)))
 (let (($x8884 (= cell_8_1 8)))
 (let (($x4648 (= cell_8_1 7)))
 (let (($x9583 (= cell_8_1 6)))
 (let (($x1381 (= cell_8_1 5)))
 (let (($x8154 (= cell_8_1 4)))
 (let (($x806 (= cell_8_1 3)))
 (let (($x7677 (= cell_8_1 2)))
 (let (($x2864 (= cell_8_1 1)))
 (or $x2864 $x7677 $x806 $x8154 $x1381 $x9583 $x4648 $x8884 $x933)))))))))))
(assert
 (let (($x4321 (= cell_9_1 9)))
 (let (($x4816 (= cell_9_1 8)))
 (let (($x618 (= cell_9_1 7)))
 (let (($x9328 (= cell_9_1 6)))
 (let (($x7588 (= cell_9_1 5)))
 (let (($x6406 (= cell_9_1 4)))
 (let (($x6664 (= cell_9_1 3)))
 (let (($x281 (= cell_9_1 2)))
 (let (($x6750 (= cell_9_1 1)))
 (or $x6750 $x281 $x6664 $x6406 $x7588 $x9328 $x618 $x4816 $x4321)))))))))))
(assert
 (let (($x3190 (= cell_1_2 9)))
 (let (($x6542 (= cell_1_2 8)))
 (let (($x9360 (= cell_1_2 7)))
 (let (($x3376 (= cell_1_2 6)))
 (let (($x8626 (= cell_1_2 5)))
 (let (($x178 (= cell_1_2 4)))
 (let (($x6904 (= cell_1_2 3)))
 (let (($x4773 (= cell_1_2 2)))
 (let (($x5237 (= cell_1_2 1)))
 (or $x5237 $x4773 $x6904 $x178 $x8626 $x3376 $x9360 $x6542 $x3190)))))))))))
(assert
 (let (($x9220 (= cell_2_2 9)))
 (let (($x7846 (= cell_2_2 8)))
 (let (($x6390 (= cell_2_2 7)))
 (let (($x2084 (= cell_2_2 6)))
 (let (($x3091 (= cell_2_2 5)))
 (let (($x9485 (= cell_2_2 4)))
 (let (($x2154 (= cell_2_2 3)))
 (let (($x991 (= cell_2_2 2)))
 (let (($x9335 (= cell_2_2 1)))
 (or $x9335 $x991 $x2154 $x9485 $x3091 $x2084 $x6390 $x7846 $x9220)))))))))))
(assert
 (let (($x637 (= cell_3_2 9)))
 (let (($x4331 (= cell_3_2 8)))
 (let (($x4805 (= cell_3_2 7)))
 (let (($x6928 (= cell_3_2 6)))
 (let (($x4970 (= cell_3_2 5)))
 (let (($x5030 (= cell_3_2 4)))
 (let (($x7260 (= cell_3_2 3)))
 (let (($x190 (= cell_3_2 2)))
 (let (($x7342 (= cell_3_2 1)))
 (or $x7342 $x190 $x7260 $x5030 $x4970 $x6928 $x4805 $x4331 $x637)))))))))))
(assert
 (let (($x4603 (= cell_4_2 9)))
 (let (($x77 (= cell_4_2 8)))
 (let (($x5920 (= cell_4_2 7)))
 (let (($x9043 (= cell_4_2 6)))
 (let (($x9770 (= cell_4_2 5)))
 (let (($x3117 (= cell_4_2 4)))
 (let (($x2180 (= cell_4_2 3)))
 (let (($x3864 (= cell_4_2 2)))
 (let (($x5701 (= cell_4_2 1)))
 (or $x5701 $x3864 $x2180 $x3117 $x9770 $x9043 $x5920 $x77 $x4603)))))))))))
(assert
 (let (($x6061 (= cell_5_2 9)))
 (let (($x7981 (= cell_5_2 8)))
 (let (($x9621 (= cell_5_2 7)))
 (let (($x2569 (= cell_5_2 6)))
 (let (($x1542 (= cell_5_2 5)))
 (let (($x1913 (= cell_5_2 4)))
 (let (($x7380 (= cell_5_2 3)))
 (let (($x1827 (= cell_5_2 2)))
 (let (($x5385 (= cell_5_2 1)))
 (or $x5385 $x1827 $x7380 $x1913 $x1542 $x2569 $x9621 $x7981 $x6061)))))))))))
(assert
 (let (($x7061 (= cell_6_2 9)))
 (let (($x5332 (= cell_6_2 8)))
 (let (($x7368 (= cell_6_2 7)))
 (let (($x1362 (= cell_6_2 6)))
 (let (($x6515 (= cell_6_2 5)))
 (let (($x671 (= cell_6_2 4)))
 (let (($x9554 (= cell_6_2 3)))
 (let (($x9177 (= cell_6_2 2)))
 (let (($x6611 (= cell_6_2 1)))
 (or $x6611 $x9177 $x9554 $x671 $x6515 $x1362 $x7368 $x5332 $x7061)))))))))))
(assert
 (let (($x5071 (= cell_7_2 2)))
 (or (= cell_7_2 1) $x5071 (= cell_7_2 3) (= cell_7_2 4) (= cell_7_2 5) (= cell_7_2 6) (= cell_7_2 7) (= cell_7_2 8) (= cell_7_2 9))))
(assert
 (let (($x5837 (= cell_8_2 1)))
 (or $x5837 (= cell_8_2 2) (= cell_8_2 3) (= cell_8_2 4) (= cell_8_2 5) (= cell_8_2 6) (= cell_8_2 7) (= cell_8_2 8) (= cell_8_2 9))))
(assert
 (let (($x9163 (= cell_9_2 9)))
 (let (($x2771 (= cell_9_2 8)))
 (let (($x4344 (= cell_9_2 7)))
 (let (($x9312 (= cell_9_2 6)))
 (let (($x3691 (= cell_9_2 5)))
 (let (($x10245 (= cell_9_2 4)))
 (let (($x1467 (= cell_9_2 3)))
 (let (($x3008 (= cell_9_2 2)))
 (let (($x7801 (= cell_9_2 1)))
 (or $x7801 $x3008 $x1467 $x10245 $x3691 $x9312 $x4344 $x2771 $x9163)))))))))))
(assert
 (let (($x8856 (= cell_1_3 2)))
 (or (= cell_1_3 1) $x8856 (= cell_1_3 3) (= cell_1_3 4) (= cell_1_3 5) (= cell_1_3 6) (= cell_1_3 7) (= cell_1_3 8) (= cell_1_3 9))))
(assert
 (let (($x5202 (= cell_2_3 9)))
 (let (($x9233 (= cell_2_3 8)))
 (let (($x9143 (= cell_2_3 7)))
 (let (($x109 (= cell_2_3 6)))
 (let (($x7587 (= cell_2_3 5)))
 (let (($x3479 (= cell_2_3 4)))
 (let (($x4264 (= cell_2_3 3)))
 (let (($x5567 (= cell_2_3 2)))
 (let (($x1354 (= cell_2_3 1)))
 (or $x1354 $x5567 $x4264 $x3479 $x7587 $x109 $x9143 $x9233 $x5202)))))))))))
(assert
 (let (($x5141 (= cell_3_3 9)))
 (let (($x6863 (= cell_3_3 8)))
 (let (($x2185 (= cell_3_3 7)))
 (let (($x1012 (= cell_3_3 6)))
 (let (($x8953 (= cell_3_3 5)))
 (let (($x949 (= cell_3_3 4)))
 (let (($x78 (= cell_3_3 3)))
 (let (($x4941 (= cell_3_3 2)))
 (let (($x6510 (= cell_3_3 1)))
 (or $x6510 $x4941 $x78 $x949 $x8953 $x1012 $x2185 $x6863 $x5141)))))))))))
(assert
 (let (($x6486 (= cell_4_3 9)))
 (let (($x7469 (= cell_4_3 8)))
 (let (($x6948 (= cell_4_3 7)))
 (let (($x301 (= cell_4_3 6)))
 (let (($x4593 (= cell_4_3 5)))
 (let (($x5905 (= cell_4_3 4)))
 (let (($x5901 (= cell_4_3 3)))
 (let (($x7961 (= cell_4_3 2)))
 (let (($x1457 (= cell_4_3 1)))
 (or $x1457 $x7961 $x5901 $x5905 $x4593 $x301 $x6948 $x7469 $x6486)))))))))))
(assert
 (let (($x1184 (= cell_5_3 9)))
 (let (($x5808 (= cell_5_3 8)))
 (let (($x9213 (= cell_5_3 7)))
 (let (($x4071 (= cell_5_3 6)))
 (let (($x399 (= cell_5_3 5)))
 (let (($x1811 (= cell_5_3 4)))
 (let (($x2950 (= cell_5_3 3)))
 (let (($x1545 (= cell_5_3 2)))
 (let (($x1053 (= cell_5_3 1)))
 (or $x1053 $x1545 $x2950 $x1811 $x399 $x4071 $x9213 $x5808 $x1184)))))))))))
(assert
 (let (($x8473 (= cell_6_3 1)))
 (or $x8473 (= cell_6_3 2) (= cell_6_3 3) (= cell_6_3 4) (= cell_6_3 5) (= cell_6_3 6) (= cell_6_3 7) (= cell_6_3 8) (= cell_6_3 9))))
(assert
 (let (($x7014 (= cell_7_3 9)))
 (let (($x264 (= cell_7_3 8)))
 (let (($x7178 (= cell_7_3 7)))
 (let (($x9331 (= cell_7_3 6)))
 (let (($x6134 (= cell_7_3 5)))
 (let (($x6025 (= cell_7_3 4)))
 (let (($x421 (= cell_7_3 3)))
 (let (($x3354 (= cell_7_3 2)))
 (let (($x8089 (= cell_7_3 1)))
 (or $x8089 $x3354 $x421 $x6025 $x6134 $x9331 $x7178 $x264 $x7014)))))))))))
(assert
 (let (($x9248 (= cell_8_3 2)))
 (let (($x2708 (= cell_8_3 1)))
 (or $x2708 $x9248 (= cell_8_3 3) (= cell_8_3 4) (= cell_8_3 5) (= cell_8_3 6) (= cell_8_3 7) (= cell_8_3 8) (= cell_8_3 9)))))
(assert
 (let (($x2721 (= cell_9_3 9)))
 (let (($x911 (= cell_9_3 8)))
 (let (($x8106 (= cell_9_3 7)))
 (let (($x7463 (= cell_9_3 6)))
 (let (($x7795 (= cell_9_3 5)))
 (let (($x8237 (= cell_9_3 4)))
 (let (($x5592 (= cell_9_3 3)))
 (let (($x5666 (= cell_9_3 2)))
 (let (($x7816 (= cell_9_3 1)))
 (or $x7816 $x5666 $x5592 $x8237 $x7795 $x7463 $x8106 $x911 $x2721)))))))))))
(assert
 (let (($x9600 (= cell_1_4 9)))
 (let (($x937 (= cell_1_4 8)))
 (let (($x1801 (= cell_1_4 7)))
 (let (($x5926 (= cell_1_4 6)))
 (let (($x6039 (= cell_1_4 5)))
 (let (($x4380 (= cell_1_4 4)))
 (let (($x6361 (= cell_1_4 3)))
 (let (($x9556 (= cell_1_4 2)))
 (let (($x1400 (= cell_1_4 1)))
 (or $x1400 $x9556 $x6361 $x4380 $x6039 $x5926 $x1801 $x937 $x9600)))))))))))
(assert
 (let (($x5679 (= cell_2_4 9)))
 (let (($x9578 (= cell_2_4 8)))
 (let (($x5513 (= cell_2_4 7)))
 (let (($x1986 (= cell_2_4 6)))
 (let (($x2512 (= cell_2_4 5)))
 (let (($x4870 (= cell_2_4 4)))
 (let (($x9933 (= cell_2_4 3)))
 (let (($x3997 (= cell_2_4 2)))
 (let (($x2316 (= cell_2_4 1)))
 (or $x2316 $x3997 $x9933 $x4870 $x2512 $x1986 $x5513 $x9578 $x5679)))))))))))
(assert
 (let (($x4698 (= cell_3_4 1)))
 (or $x4698 (= cell_3_4 2) (= cell_3_4 3) (= cell_3_4 4) (= cell_3_4 5) (= cell_3_4 6) (= cell_3_4 7) (= cell_3_4 8) (= cell_3_4 9))))
(assert
 (let (($x1061 (= cell_4_4 9)))
 (let (($x7785 (= cell_4_4 8)))
 (let (($x8425 (= cell_4_4 7)))
 (let (($x8463 (= cell_4_4 6)))
 (let (($x7338 (= cell_4_4 5)))
 (let (($x1421 (= cell_4_4 4)))
 (let (($x3053 (= cell_4_4 3)))
 (let (($x7871 (= cell_4_4 2)))
 (let (($x1164 (= cell_4_4 1)))
 (or $x1164 $x7871 $x3053 $x1421 $x7338 $x8463 $x8425 $x7785 $x1061)))))))))))
(assert
 (let (($x2347 (= cell_5_4 9)))
 (let (($x5446 (= cell_5_4 8)))
 (let (($x1665 (= cell_5_4 7)))
 (let (($x280 (= cell_5_4 6)))
 (let (($x4370 (= cell_5_4 5)))
 (let (($x6288 (= cell_5_4 4)))
 (let (($x3868 (= cell_5_4 3)))
 (let (($x1479 (= cell_5_4 2)))
 (let (($x2715 (= cell_5_4 1)))
 (or $x2715 $x1479 $x3868 $x6288 $x4370 $x280 $x1665 $x5446 $x2347)))))))))))
(assert
 (let (($x7706 (= cell_6_4 2)))
 (or (= cell_6_4 1) $x7706 (= cell_6_4 3) (= cell_6_4 4) (= cell_6_4 5) (= cell_6_4 6) (= cell_6_4 7) (= cell_6_4 8) (= cell_6_4 9))))
(assert
 (let (($x2234 (= cell_7_4 9)))
 (let (($x10069 (= cell_7_4 8)))
 (let (($x3982 (= cell_7_4 7)))
 (let (($x9075 (= cell_7_4 6)))
 (let (($x6126 (= cell_7_4 5)))
 (let (($x8736 (= cell_7_4 4)))
 (let (($x5633 (= cell_7_4 3)))
 (let (($x6398 (= cell_7_4 2)))
 (let (($x5493 (= cell_7_4 1)))
 (or $x5493 $x6398 $x5633 $x8736 $x6126 $x9075 $x3982 $x10069 $x2234)))))))))))
(assert
 (let (($x9392 (= cell_8_4 2)))
 (let (($x4197 (= cell_8_4 1)))
 (or $x4197 $x9392 (= cell_8_4 3) (= cell_8_4 4) (= cell_8_4 5) (= cell_8_4 6) (= cell_8_4 7) (= cell_8_4 8) (= cell_8_4 9)))))
(assert
 (let (($x5187 (= cell_9_4 9)))
 (let (($x5771 (= cell_9_4 8)))
 (let (($x4520 (= cell_9_4 7)))
 (let (($x4117 (= cell_9_4 6)))
 (let (($x2949 (= cell_9_4 5)))
 (let (($x4334 (= cell_9_4 4)))
 (let (($x8527 (= cell_9_4 3)))
 (let (($x3464 (= cell_9_4 2)))
 (let (($x4554 (= cell_9_4 1)))
 (or $x4554 $x3464 $x8527 $x4334 $x2949 $x4117 $x4520 $x5771 $x5187)))))))))))
(assert
 (let (($x6746 (= cell_1_5 9)))
 (let (($x7921 (= cell_1_5 8)))
 (let (($x5607 (= cell_1_5 7)))
 (let (($x6958 (= cell_1_5 6)))
 (let (($x5896 (= cell_1_5 5)))
 (let (($x355 (= cell_1_5 4)))
 (let (($x6459 (= cell_1_5 3)))
 (let (($x7223 (= cell_1_5 2)))
 (let (($x7780 (= cell_1_5 1)))
 (or $x7780 $x7223 $x6459 $x355 $x5896 $x6958 $x5607 $x7921 $x6746)))))))))))
(assert
 (let (($x6753 (= cell_2_5 9)))
 (let (($x8166 (= cell_2_5 8)))
 (let (($x8558 (= cell_2_5 7)))
 (let (($x4566 (= cell_2_5 6)))
 (let (($x164 (= cell_2_5 5)))
 (let (($x7608 (= cell_2_5 4)))
 (let (($x3970 (= cell_2_5 3)))
 (let (($x7385 (= cell_2_5 2)))
 (let (($x2344 (= cell_2_5 1)))
 (or $x2344 $x7385 $x3970 $x7608 $x164 $x4566 $x8558 $x8166 $x6753)))))))))))
(assert
 (let (($x2370 (= cell_3_5 9)))
 (let (($x5765 (= cell_3_5 8)))
 (let (($x510 (= cell_3_5 7)))
 (let (($x7476 (= cell_3_5 6)))
 (let (($x10163 (= cell_3_5 5)))
 (let (($x4053 (= cell_3_5 4)))
 (let (($x10108 (= cell_3_5 3)))
 (let (($x4888 (= cell_3_5 2)))
 (let (($x4167 (= cell_3_5 1)))
 (or $x4167 $x4888 $x10108 $x4053 $x10163 $x7476 $x510 $x5765 $x2370)))))))))))
(assert
 (let (($x4801 (= cell_4_5 9)))
 (let (($x6481 (= cell_4_5 8)))
 (let (($x6805 (= cell_4_5 7)))
 (let (($x8302 (= cell_4_5 6)))
 (let (($x9561 (= cell_4_5 5)))
 (let (($x3195 (= cell_4_5 4)))
 (let (($x1463 (= cell_4_5 3)))
 (let (($x3327 (= cell_4_5 2)))
 (let (($x6404 (= cell_4_5 1)))
 (or $x6404 $x3327 $x1463 $x3195 $x9561 $x8302 $x6805 $x6481 $x4801)))))))))))
(assert
 (let (($x1689 (= cell_5_5 9)))
 (let (($x8139 (= cell_5_5 8)))
 (let (($x4128 (= cell_5_5 7)))
 (let (($x3448 (= cell_5_5 6)))
 (let (($x3991 (= cell_5_5 5)))
 (let (($x7576 (= cell_5_5 4)))
 (let (($x5112 (= cell_5_5 3)))
 (let (($x8388 (= cell_5_5 2)))
 (let (($x3801 (= cell_5_5 1)))
 (or $x3801 $x8388 $x5112 $x7576 $x3991 $x3448 $x4128 $x8139 $x1689)))))))))))
(assert
 (let (($x5219 (= cell_6_5 9)))
 (let (($x4398 (= cell_6_5 8)))
 (let (($x4039 (= cell_6_5 7)))
 (let (($x4313 (= cell_6_5 6)))
 (let (($x2216 (= cell_6_5 5)))
 (let (($x1755 (= cell_6_5 4)))
 (let (($x2755 (= cell_6_5 3)))
 (let (($x1733 (= cell_6_5 2)))
 (let (($x6479 (= cell_6_5 1)))
 (or $x6479 $x1733 $x2755 $x1755 $x2216 $x4313 $x4039 $x4398 $x5219)))))))))))
(assert
 (let (($x5120 (= cell_7_5 1)))
 (or $x5120 (= cell_7_5 2) (= cell_7_5 3) (= cell_7_5 4) (= cell_7_5 5) (= cell_7_5 6) (= cell_7_5 7) (= cell_7_5 8) (= cell_7_5 9))))
(assert
 (let (($x9022 (= cell_8_5 2)))
 (let (($x6427 (= cell_8_5 1)))
 (or $x6427 $x9022 (= cell_8_5 3) (= cell_8_5 4) (= cell_8_5 5) (= cell_8_5 6) (= cell_8_5 7) (= cell_8_5 8) (= cell_8_5 9)))))
(assert
 (let (($x10119 (= cell_9_5 9)))
 (let (($x1649 (= cell_9_5 8)))
 (let (($x9560 (= cell_9_5 7)))
 (let (($x2919 (= cell_9_5 6)))
 (let (($x6655 (= cell_9_5 5)))
 (let (($x3215 (= cell_9_5 4)))
 (let (($x10282 (= cell_9_5 3)))
 (let (($x6388 (= cell_9_5 2)))
 (let (($x1338 (= cell_9_5 1)))
 (or $x1338 $x6388 $x10282 $x3215 $x6655 $x2919 $x9560 $x1649 $x10119)))))))))))
(assert
 (let (($x8949 (= cell_1_6 9)))
 (let (($x2523 (= cell_1_6 8)))
 (let (($x8359 (= cell_1_6 7)))
 (let (($x10295 (= cell_1_6 6)))
 (let (($x4744 (= cell_1_6 5)))
 (let (($x6042 (= cell_1_6 4)))
 (let (($x9810 (= cell_1_6 3)))
 (let (($x7088 (= cell_1_6 2)))
 (let (($x2002 (= cell_1_6 1)))
 (or $x2002 $x7088 $x9810 $x6042 $x4744 $x10295 $x8359 $x2523 $x8949)))))))))))
(assert
 (let (($x7845 (= cell_2_6 2)))
 (or (= cell_2_6 1) $x7845 (= cell_2_6 3) (= cell_2_6 4) (= cell_2_6 5) (= cell_2_6 6) (= cell_2_6 7) (= cell_2_6 8) (= cell_2_6 9))))
(assert
 (let (($x7760 (= cell_3_6 9)))
 (let (($x5232 (= cell_3_6 8)))
 (let (($x4991 (= cell_3_6 7)))
 (let (($x925 (= cell_3_6 6)))
 (let (($x1474 (= cell_3_6 5)))
 (let (($x4669 (= cell_3_6 4)))
 (let (($x2545 (= cell_3_6 3)))
 (let (($x5634 (= cell_3_6 2)))
 (let (($x8370 (= cell_3_6 1)))
 (or $x8370 $x5634 $x2545 $x4669 $x1474 $x925 $x4991 $x5232 $x7760)))))))))))
(assert
 (let (($x5758 (= cell_4_6 1)))
 (or $x5758 (= cell_4_6 2) (= cell_4_6 3) (= cell_4_6 4) (= cell_4_6 5) (= cell_4_6 6) (= cell_4_6 7) (= cell_4_6 8) (= cell_4_6 9))))
(assert
 (let (($x4762 (= cell_5_6 9)))
 (let (($x84 (= cell_5_6 8)))
 (let (($x4605 (= cell_5_6 7)))
 (let (($x2571 (= cell_5_6 6)))
 (let (($x2711 (= cell_5_6 5)))
 (let (($x8396 (= cell_5_6 4)))
 (let (($x3537 (= cell_5_6 3)))
 (let (($x138 (= cell_5_6 2)))
 (let (($x10155 (= cell_5_6 1)))
 (or $x10155 $x138 $x3537 $x8396 $x2711 $x2571 $x4605 $x84 $x4762)))))))))))
(assert
 (let (($x8865 (= cell_6_6 2)))
 (let (($x985 (= cell_6_6 1)))
 (or $x985 $x8865 (= cell_6_6 3) (= cell_6_6 4) (= cell_6_6 5) (= cell_6_6 6) (= cell_6_6 7) (= cell_6_6 8) (= cell_6_6 9)))))
(assert
 (let (($x4021 (= cell_7_6 2)))
 (let (($x3109 (= cell_7_6 1)))
 (or $x3109 $x4021 (= cell_7_6 3) (= cell_7_6 4) (= cell_7_6 5) (= cell_7_6 6) (= cell_7_6 7) (= cell_7_6 8) (= cell_7_6 9)))))
(assert
 (let (($x6889 (= cell_8_6 2)))
 (let (($x1878 (= cell_8_6 1)))
 (or $x1878 $x6889 (= cell_8_6 3) (= cell_8_6 4) (= cell_8_6 5) (= cell_8_6 6) (= cell_8_6 7) (= cell_8_6 8) (= cell_8_6 9)))))
(assert
 (let (($x6430 (= cell_9_6 9)))
 (let (($x4681 (= cell_9_6 8)))
 (let (($x4982 (= cell_9_6 7)))
 (let (($x2859 (= cell_9_6 6)))
 (let (($x9832 (= cell_9_6 5)))
 (let (($x3288 (= cell_9_6 4)))
 (let (($x8297 (= cell_9_6 3)))
 (let (($x656 (= cell_9_6 2)))
 (let (($x313 (= cell_9_6 1)))
 (or $x313 $x656 $x8297 $x3288 $x9832 $x2859 $x4982 $x4681 $x6430)))))))))))
(assert
 (let (($x9704 (= cell_1_7 9)))
 (let (($x7958 (= cell_1_7 8)))
 (let (($x4546 (= cell_1_7 7)))
 (let (($x6499 (= cell_1_7 6)))
 (let (($x6858 (= cell_1_7 5)))
 (let (($x1365 (= cell_1_7 4)))
 (let (($x625 (= cell_1_7 3)))
 (let (($x6635 (= cell_1_7 2)))
 (let (($x8657 (= cell_1_7 1)))
 (or $x8657 $x6635 $x625 $x1365 $x6858 $x6499 $x4546 $x7958 $x9704)))))))))))
(assert
 (let (($x6946 (= cell_2_7 9)))
 (let (($x7828 (= cell_2_7 8)))
 (let (($x8134 (= cell_2_7 7)))
 (let (($x1804 (= cell_2_7 6)))
 (let (($x87 (= cell_2_7 5)))
 (let (($x25 (= cell_2_7 4)))
 (let (($x6834 (= cell_2_7 3)))
 (let (($x1179 (= cell_2_7 2)))
 (let (($x6128 (= cell_2_7 1)))
 (or $x6128 $x1179 $x6834 $x25 $x87 $x1804 $x8134 $x7828 $x6946)))))))))))
(assert
 (let (($x8152 (= cell_3_7 9)))
 (let (($x1492 (= cell_3_7 8)))
 (let (($x3292 (= cell_3_7 7)))
 (let (($x4614 (= cell_3_7 6)))
 (let (($x4650 (= cell_3_7 5)))
 (let (($x1880 (= cell_3_7 4)))
 (let (($x2063 (= cell_3_7 3)))
 (let (($x8690 (= cell_3_7 2)))
 (let (($x9197 (= cell_3_7 1)))
 (or $x9197 $x8690 $x2063 $x1880 $x4650 $x4614 $x3292 $x1492 $x8152)))))))))))
(assert
 (let (($x7159 (= cell_4_7 9)))
 (let (($x4276 (= cell_4_7 8)))
 (let (($x3296 (= cell_4_7 7)))
 (let (($x683 (= cell_4_7 6)))
 (let (($x8863 (= cell_4_7 5)))
 (let (($x6111 (= cell_4_7 4)))
 (let (($x9858 (= cell_4_7 3)))
 (let (($x4796 (= cell_4_7 2)))
 (let (($x1357 (= cell_4_7 1)))
 (or $x1357 $x4796 $x9858 $x6111 $x8863 $x683 $x3296 $x4276 $x7159)))))))))))
(assert
 (let (($x9652 (= cell_5_7 9)))
 (let (($x388 (= cell_5_7 8)))
 (let (($x3889 (= cell_5_7 7)))
 (let (($x4948 (= cell_5_7 6)))
 (let (($x1037 (= cell_5_7 5)))
 (let (($x4602 (= cell_5_7 4)))
 (let (($x9898 (= cell_5_7 3)))
 (let (($x8846 (= cell_5_7 2)))
 (let (($x8561 (= cell_5_7 1)))
 (or $x8561 $x8846 $x9898 $x4602 $x1037 $x4948 $x3889 $x388 $x9652)))))))))))
(assert
 (let (($x6596 (= cell_6_7 9)))
 (let (($x2288 (= cell_6_7 8)))
 (let (($x314 (= cell_6_7 7)))
 (let (($x1500 (= cell_6_7 6)))
 (let (($x9121 (= cell_6_7 5)))
 (let (($x4369 (= cell_6_7 4)))
 (let (($x3177 (= cell_6_7 3)))
 (let (($x5733 (= cell_6_7 2)))
 (let (($x9034 (= cell_6_7 1)))
 (or $x9034 $x5733 $x3177 $x4369 $x9121 $x1500 $x314 $x2288 $x6596)))))))))))
(assert
 (let (($x3575 (= cell_7_7 9)))
 (let (($x4720 (= cell_7_7 8)))
 (let (($x846 (= cell_7_7 7)))
 (let (($x5011 (= cell_7_7 6)))
 (let (($x4267 (= cell_7_7 5)))
 (let (($x2665 (= cell_7_7 4)))
 (let (($x2627 (= cell_7_7 3)))
 (let (($x5769 (= cell_7_7 2)))
 (let (($x8915 (= cell_7_7 1)))
 (or $x8915 $x5769 $x2627 $x2665 $x4267 $x5011 $x846 $x4720 $x3575)))))))))))
(assert
 (let (($x9716 (= cell_8_7 9)))
 (let (($x6101 (= cell_8_7 8)))
 (let (($x324 (= cell_8_7 7)))
 (let (($x5814 (= cell_8_7 6)))
 (let (($x1356 (= cell_8_7 5)))
 (let (($x2248 (= cell_8_7 4)))
 (let (($x8449 (= cell_8_7 3)))
 (let (($x4372 (= cell_8_7 2)))
 (let (($x3400 (= cell_8_7 1)))
 (or $x3400 $x4372 $x8449 $x2248 $x1356 $x5814 $x324 $x6101 $x9716)))))))))))
(assert
 (let (($x1447 (= cell_9_7 1)))
 (or $x1447 (= cell_9_7 2) (= cell_9_7 3) (= cell_9_7 4) (= cell_9_7 5) (= cell_9_7 6) (= cell_9_7 7) (= cell_9_7 8) (= cell_9_7 9))))
(assert
 (let (($x8780 (= cell_1_8 9)))
 (let (($x900 (= cell_1_8 8)))
 (let (($x1462 (= cell_1_8 7)))
 (let (($x7534 (= cell_1_8 6)))
 (let (($x7467 (= cell_1_8 5)))
 (let (($x172 (= cell_1_8 4)))
 (let (($x9517 (= cell_1_8 3)))
 (let (($x2782 (= cell_1_8 2)))
 (let (($x996 (= cell_1_8 1)))
 (or $x996 $x2782 $x9517 $x172 $x7467 $x7534 $x1462 $x900 $x8780)))))))))))
(assert
 (let (($x6952 (= cell_2_8 1)))
 (or $x6952 (= cell_2_8 2) (= cell_2_8 3) (= cell_2_8 4) (= cell_2_8 5) (= cell_2_8 6) (= cell_2_8 7) (= cell_2_8 8) (= cell_2_8 9))))
(assert
 (let (($x9062 (= cell_3_8 2)))
 (or (= cell_3_8 1) $x9062 (= cell_3_8 3) (= cell_3_8 4) (= cell_3_8 5) (= cell_3_8 6) (= cell_3_8 7) (= cell_3_8 8) (= cell_3_8 9))))
(assert
 (let (($x2433 (= cell_4_8 9)))
 (let (($x9111 (= cell_4_8 8)))
 (let (($x2386 (= cell_4_8 7)))
 (let (($x4647 (= cell_4_8 6)))
 (let (($x9542 (= cell_4_8 5)))
 (let (($x6215 (= cell_4_8 4)))
 (let (($x1669 (= cell_4_8 3)))
 (let (($x6166 (= cell_4_8 2)))
 (let (($x9368 (= cell_4_8 1)))
 (or $x9368 $x6166 $x1669 $x6215 $x9542 $x4647 $x2386 $x9111 $x2433)))))))))))
(assert
 (let (($x3419 (= cell_5_8 9)))
 (let (($x203 (= cell_5_8 8)))
 (let (($x2157 (= cell_5_8 7)))
 (let (($x1319 (= cell_5_8 6)))
 (let (($x9969 (= cell_5_8 5)))
 (let (($x632 (= cell_5_8 4)))
 (let (($x121 (= cell_5_8 3)))
 (let (($x784 (= cell_5_8 2)))
 (let (($x623 (= cell_5_8 1)))
 (or $x623 $x784 $x121 $x632 $x9969 $x1319 $x2157 $x203 $x3419)))))))))))
(assert
 (let (($x7424 (= cell_6_8 2)))
 (let (($x3703 (= cell_6_8 1)))
 (or $x3703 $x7424 (= cell_6_8 3) (= cell_6_8 4) (= cell_6_8 5) (= cell_6_8 6) (= cell_6_8 7) (= cell_6_8 8) (= cell_6_8 9)))))
(assert
 (let (($x3920 (= cell_7_8 9)))
 (let (($x7740 (= cell_7_8 8)))
 (let (($x896 (= cell_7_8 7)))
 (let (($x1940 (= cell_7_8 6)))
 (let (($x8590 (= cell_7_8 5)))
 (let (($x7838 (= cell_7_8 4)))
 (let (($x1816 (= cell_7_8 3)))
 (let (($x7013 (= cell_7_8 2)))
 (let (($x5327 (= cell_7_8 1)))
 (or $x5327 $x7013 $x1816 $x7838 $x8590 $x1940 $x896 $x7740 $x3920)))))))))))
(assert
 (let (($x536 (= cell_8_8 9)))
 (let (($x1301 (= cell_8_8 8)))
 (let (($x3849 (= cell_8_8 7)))
 (let (($x2647 (= cell_8_8 6)))
 (let (($x6528 (= cell_8_8 5)))
 (let (($x215 (= cell_8_8 4)))
 (let (($x2461 (= cell_8_8 3)))
 (let (($x6400 (= cell_8_8 2)))
 (let (($x2224 (= cell_8_8 1)))
 (or $x2224 $x6400 $x2461 $x215 $x6528 $x2647 $x3849 $x1301 $x536)))))))))))
(assert
 (let (($x2090 (= cell_9_8 2)))
 (let (($x5577 (= cell_9_8 1)))
 (or $x5577 $x2090 (= cell_9_8 3) (= cell_9_8 4) (= cell_9_8 5) (= cell_9_8 6) (= cell_9_8 7) (= cell_9_8 8) (= cell_9_8 9)))))
(assert
 (let (($x5267 (= cell_1_9 9)))
 (let (($x8526 (= cell_1_9 8)))
 (let (($x9836 (= cell_1_9 7)))
 (let (($x4996 (= cell_1_9 6)))
 (let (($x2188 (= cell_1_9 5)))
 (let (($x6382 (= cell_1_9 4)))
 (let (($x9868 (= cell_1_9 3)))
 (let (($x10022 (= cell_1_9 2)))
 (let (($x643 (= cell_1_9 1)))
 (or $x643 $x10022 $x9868 $x6382 $x2188 $x4996 $x9836 $x8526 $x5267)))))))))))
(assert
 (let (($x9991 (= cell_2_9 9)))
 (let (($x2798 (= cell_2_9 8)))
 (let (($x3003 (= cell_2_9 7)))
 (let (($x2334 (= cell_2_9 6)))
 (let (($x7533 (= cell_2_9 5)))
 (let (($x9338 (= cell_2_9 4)))
 (let (($x7808 (= cell_2_9 3)))
 (let (($x3953 (= cell_2_9 2)))
 (let (($x3383 (= cell_2_9 1)))
 (or $x3383 $x3953 $x7808 $x9338 $x7533 $x2334 $x3003 $x2798 $x9991)))))))))))
(assert
 (let (($x1484 (= cell_3_9 9)))
 (let (($x1345 (= cell_3_9 8)))
 (let (($x2324 (= cell_3_9 7)))
 (let (($x3639 (= cell_3_9 6)))
 (let (($x7354 (= cell_3_9 5)))
 (let (($x6912 (= cell_3_9 4)))
 (let (($x6927 (= cell_3_9 3)))
 (let (($x2410 (= cell_3_9 2)))
 (let (($x6231 (= cell_3_9 1)))
 (or $x6231 $x2410 $x6927 $x6912 $x7354 $x3639 $x2324 $x1345 $x1484)))))))))))
(assert
 (let (($x4421 (= cell_4_9 2)))
 (or (= cell_4_9 1) $x4421 (= cell_4_9 3) (= cell_4_9 4) (= cell_4_9 5) (= cell_4_9 6) (= cell_4_9 7) (= cell_4_9 8) (= cell_4_9 9))))
(assert
 (let (($x3843 (= cell_5_9 1)))
 (or $x3843 (= cell_5_9 2) (= cell_5_9 3) (= cell_5_9 4) (= cell_5_9 5) (= cell_5_9 6) (= cell_5_9 7) (= cell_5_9 8) (= cell_5_9 9))))
(assert
 (let (($x5915 (= cell_6_9 2)))
 (let (($x3831 (= cell_6_9 1)))
 (or $x3831 $x5915 (= cell_6_9 3) (= cell_6_9 4) (= cell_6_9 5) (= cell_6_9 6) (= cell_6_9 7) (= cell_6_9 8) (= cell_6_9 9)))))
(assert
 (let (($x8675 (= cell_7_9 9)))
 (let (($x3201 (= cell_7_9 8)))
 (let (($x7815 (= cell_7_9 7)))
 (let (($x5743 (= cell_7_9 6)))
 (let (($x9251 (= cell_7_9 5)))
 (let (($x7847 (= cell_7_9 4)))
 (let (($x1368 (= cell_7_9 3)))
 (let (($x4304 (= cell_7_9 2)))
 (let (($x8855 (= cell_7_9 1)))
 (or $x8855 $x4304 $x1368 $x7847 $x9251 $x5743 $x7815 $x3201 $x8675)))))))))))
(assert
 (let (($x3610 (= cell_8_9 9)))
 (let (($x2593 (= cell_8_9 8)))
 (let (($x5546 (= cell_8_9 7)))
 (let (($x6469 (= cell_8_9 6)))
 (let (($x3066 (= cell_8_9 5)))
 (let (($x3911 (= cell_8_9 4)))
 (let (($x3465 (= cell_8_9 3)))
 (let (($x51 (= cell_8_9 2)))
 (let (($x4732 (= cell_8_9 1)))
 (or $x4732 $x51 $x3465 $x3911 $x3066 $x6469 $x5546 $x2593 $x3610)))))))))))
(assert
 (let (($x945 (= cell_9_9 2)))
 (let (($x1516 (= cell_9_9 1)))
 (or $x1516 $x945 (= cell_9_9 3) (= cell_9_9 4) (= cell_9_9 5) (= cell_9_9 6) (= cell_9_9 7) (= cell_9_9 8) (= cell_9_9 9)))))
(assert
 (and (distinct cell_1_1 cell_1_2 cell_1_3 cell_1_4 cell_1_5 cell_1_6 cell_1_7 cell_1_8 cell_1_9) true))
(assert
 (and (distinct cell_2_1 cell_2_2 cell_2_3 cell_2_4 cell_2_5 cell_2_6 cell_2_7 cell_2_8 cell_2_9) true))
(assert
 (and (distinct cell_3_1 cell_3_2 cell_3_3 cell_3_4 cell_3_5 cell_3_6 cell_3_7 cell_3_8 cell_3_9) true))
(assert
 (and (distinct cell_4_1 cell_4_2 cell_4_3 cell_4_4 cell_4_5 cell_4_6 cell_4_7 cell_4_8 cell_4_9) true))
(assert
 (and (distinct cell_5_1 cell_5_2 cell_5_3 cell_5_4 cell_5_5 cell_5_6 cell_5_7 cell_5_8 cell_5_9) true))
(assert
 (and (distinct cell_6_1 cell_6_2 cell_6_3 cell_6_4 cell_6_5 cell_6_6 cell_6_7 cell_6_8 cell_6_9) true))
(assert
 (and (distinct cell_7_1 cell_7_2 cell_7_3 cell_7_4 cell_7_5 cell_7_6 cell_7_7 cell_7_8 cell_7_9) true))
(assert
 (and (distinct cell_8_1 cell_8_2 cell_8_3 cell_8_4 cell_8_5 cell_8_6 cell_8_7 cell_8_8 cell_8_9) true))
(assert
 (and (distinct cell_9_1 cell_9_2 cell_9_3 cell_9_4 cell_9_5 cell_9_6 cell_9_7 cell_9_8 cell_9_9) true))
(assert
 (and (distinct cell_1_1 cell_2_1 cell_3_1 cell_4_1 cell_5_1 cell_6_1 cell_7_1 cell_8_1 cell_9_1) true))
(assert
 (and (distinct cell_1_2 cell_2_2 cell_3_2 cell_4_2 cell_5_2 cell_6_2 cell_7_2 cell_8_2 cell_9_2) true))
(assert
 (and (distinct cell_1_3 cell_2_3 cell_3_3 cell_4_3 cell_5_3 cell_6_3 cell_7_3 cell_8_3 cell_9_3) true))
(assert
 (and (distinct cell_1_4 cell_2_4 cell_3_4 cell_4_4 cell_5_4 cell_6_4 cell_7_4 cell_8_4 cell_9_4) true))
(assert
 (and (distinct cell_1_5 cell_2_5 cell_3_5 cell_4_5 cell_5_5 cell_6_5 cell_7_5 cell_8_5 cell_9_5) true))
(assert
 (and (distinct cell_1_6 cell_2_6 cell_3_6 cell_4_6 cell_5_6 cell_6_6 cell_7_6 cell_8_6 cell_9_6) true))
(assert
 (and (distinct cell_1_7 cell_2_7 cell_3_7 cell_4_7 cell_5_7 cell_6_7 cell_7_7 cell_8_7 cell_9_7) true))
(assert
 (and (distinct cell_1_8 cell_2_8 cell_3_8 cell_4_8 cell_5_8 cell_6_8 cell_7_8 cell_8_8 cell_9_8) true))
(assert
 (and (distinct cell_1_9 cell_2_9 cell_3_9 cell_4_9 cell_5_9 cell_6_9 cell_7_9 cell_8_9 cell_9_9) true))
(assert
 (and (distinct cell_1_1 cell_1_2 cell_1_3 cell_2_1 cell_2_2 cell_2_3 cell_3_1 cell_3_2 cell_3_3) true))
(assert
 (and (distinct cell_1_4 cell_1_5 cell_1_6 cell_2_4 cell_2_5 cell_2_6 cell_3_4 cell_3_5 cell_3_6) true))
(assert
 (and (distinct cell_1_7 cell_1_8 cell_1_9 cell_2_7 cell_2_8 cell_2_9 cell_3_7 cell_3_8 cell_3_9) true))
(assert
 (and (distinct cell_4_1 cell_4_2 cell_4_3 cell_5_1 cell_5_2 cell_5_3 cell_6_1 cell_6_2 cell_6_3) true))
(assert
 (and (distinct cell_4_4 cell_4_5 cell_4_6 cell_5_4 cell_5_5 cell_5_6 cell_6_4 cell_6_5 cell_6_6) true))
(assert
 (and (distinct cell_4_7 cell_4_8 cell_4_9 cell_5_7 cell_5_8 cell_5_9 cell_6_7 cell_6_8 cell_6_9) true))
(assert
 (and (distinct cell_7_1 cell_7_2 cell_7_3 cell_8_1 cell_8_2 cell_8_3 cell_9_1 cell_9_2 cell_9_3) true))
(assert
 (and (distinct cell_7_4 cell_7_5 cell_7_6 cell_8_4 cell_8_5 cell_8_6 cell_9_4 cell_9_5 cell_9_6) true))
(assert
 (and (distinct cell_7_7 cell_7_8 cell_7_9 cell_8_7 cell_8_8 cell_8_9 cell_9_7 cell_9_8 cell_9_9) true))
(assert
 (let (($x5361 (and (distinct cell_5_9 cell_6_8 cell_7_7 cell_8_6) true)))
 (let (($x3169 (and (distinct cell_2_9 cell_3_8 cell_4_7 cell_5_6 cell_6_5 cell_7_4 cell_8_3 cell_9_2) true)))
 (let (($x4709 (and (distinct cell_1_8 cell_2_7 cell_3_6 cell_4_5 cell_5_4 cell_6_3 cell_7_2 cell_8_1) true)))
 (let (($x1603 (and (distinct cell_1_5 cell_2_4 cell_3_3 cell_4_2) true)))
 (let (($x9568 (and (distinct cell_5_1 cell_6_2 cell_7_3 cell_8_4) true)))
 (let (($x8053 (and (distinct cell_2_1 cell_3_2 cell_4_3 cell_5_4 cell_6_5 cell_7_6 cell_8_7 cell_9_8) true)))
 (let (($x8136 (and (distinct cell_1_2 cell_2_3 cell_3_4 cell_4_5 cell_5_6 cell_6_7 cell_7_8 cell_8_9) true)))
 (let (($x8212 (and (distinct cell_1_5 cell_2_6 cell_3_7 cell_4_8) true)))
 (and $x8212 $x8136 $x8053 $x9568 $x1603 $x4709 $x3169 $x5361))))))))))
(assert
 (and (distinct cell_8_5 2) true))
(check-sat)
